logs/miss/max/miss-06-15-0.lp
\ LP format - for model browsing. Use MPS format to capture full model detail.
Maximize
  x0,1_6 + x0,1_7 + x0,1_8 + x0,1_15 + x0,1_16 + x0,1_21 + x0,2_6 + x0,2_7
   + x0,2_8 + x0,2_15 + x0,2_16 + x0,2_21 + x0,3_6 + x0,3_7 + x0,3_8
   + x0,3_15 + x0,3_16 + x0,3_21 + x0,4_6 + x0,4_7 + x0,4_8 + x0,4_15
   + x0,4_16 + x0,4_21 + x0,5_6 + x0,5_7 + x0,5_8 + x0,5_15 + x0,5_16
   + x0,5_21 + x1,2_6 + x1,2_7 + x1,2_8 + x1,2_15 + x1,2_16 + x1,2_21
   + x1,3_6 + x1,3_7 + x1,3_8 + x1,3_15 + x1,3_16 + x1,3_21 + x1,4_6
   + x1,4_7 + x1,4_8 + x1,4_15 + x1,4_16 + x1,4_21 + x1,5_6 + x1,5_7
   + x1,5_8 + x1,5_15 + x1,5_16 + x1,5_21 + x2,3_6 + x2,3_7 + x2,3_8
   + x2,3_15 + x2,3_16 + x2,3_21 + x2,4_6 + x2,4_7 + x2,4_8 + x2,4_15
   + x2,4_16 + x2,4_21 + x2,5_6 + x2,5_7 + x2,5_8 + x2,5_15 + x2,5_16
   + x2,5_21 + x3,4_6 + x3,4_7 + x3,4_8 + x3,4_15 + x3,4_16 + x3,4_21
   + x3,5_6 + x3,5_7 + x3,5_8 + x3,5_15 + x3,5_16 + x3,5_21 + x4,5_6
   + x4,5_7 + x4,5_8 + x4,5_15 + x4,5_16 + x4,5_21
Subject To
 R0: x0,1_6 + x0,2_6 + x0,3_6 + x0,4_6 + x0,5_6 + x1,2_6 + x1,3_6 + x1,4_6
   + x1,5_6 + x2,3_6 + x2,4_6 + x2,5_6 + x3,4_6 + x3,5_6 + x4,5_6 <= 1
 R1: x0,1_7 + x0,2_7 + x0,3_7 + x0,4_7 + x0,5_7 + x1,2_7 + x1,3_7 + x1,4_7
   + x1,5_7 + x2,3_7 + x2,4_7 + x2,5_7 + x3,4_7 + x3,5_7 + x4,5_7 <= 1
 R2: x0,1_8 + x0,2_8 + x0,3_8 + x0,4_8 + x0,5_8 + x1,2_8 + x1,3_8 + x1,4_8
   + x1,5_8 + x2,3_8 + x2,4_8 + x2,5_8 + x3,4_8 + x3,5_8 + x4,5_8 <= 3
 R3: x0,1_15 + x0,2_15 + x0,3_15 + x0,4_15 + x0,5_15 + x1,2_15 + x1,3_15
   + x1,4_15 + x1,5_15 + x2,3_15 + x2,4_15 + x2,5_15 + x3,4_15 + x3,5_15
   + x4,5_15 <= 1
 R4: x0,1_16 + x0,2_16 + x0,3_16 + x0,4_16 + x0,5_16 + x1,2_16 + x1,3_16
   + x1,4_16 + x1,5_16 + x2,3_16 + x2,4_16 + x2,5_16 + x3,4_16 + x3,5_16
   + x4,5_16 <= 2
 R5: x0,1_21 + x0,2_21 + x0,3_21 + x0,4_21 + x0,5_21 + x1,2_21 + x1,3_21
   + x1,4_21 + x1,5_21 + x2,3_21 + x2,4_21 + x2,5_21 + x3,4_21 + x3,5_21
   + x4,5_21 <= 1
 R6: x0,1_6 + x0,1_7 + x0,1_8 + x0,1_15 + x0,1_16 + x0,1_21 <= 1
 R7: x0,2_6 + x0,2_7 + x0,2_8 + x0,2_15 + x0,2_16 + x0,2_21 <= 1
 R8: x0,3_6 + x0,3_7 + x0,3_8 + x0,3_15 + x0,3_16 + x0,3_21 <= 1
 R9: x0,4_6 + x0,4_7 + x0,4_8 + x0,4_15 + x0,4_16 + x0,4_21 <= 1
 R10: x0,5_6 + x0,5_7 + x0,5_8 + x0,5_15 + x0,5_16 + x0,5_21 <= 1
 R11: x1,2_6 + x1,2_7 + x1,2_8 + x1,2_15 + x1,2_16 + x1,2_21 <= 1
 R12: x1,3_6 + x1,3_7 + x1,3_8 + x1,3_15 + x1,3_16 + x1,3_21 <= 1
 R13: x1,4_6 + x1,4_7 + x1,4_8 + x1,4_15 + x1,4_16 + x1,4_21 <= 1
 R14: x1,5_6 + x1,5_7 + x1,5_8 + x1,5_15 + x1,5_16 + x1,5_21 <= 1
 R15: x2,3_6 + x2,3_7 + x2,3_8 + x2,3_15 + x2,3_16 + x2,3_21 <= 1
 R16: x2,4_6 + x2,4_7 + x2,4_8 + x2,4_15 + x2,4_16 + x2,4_21 <= 1
 R17: x2,5_6 + x2,5_7 + x2,5_8 + x2,5_15 + x2,5_16 + x2,5_21 <= 1
 R18: x3,4_6 + x3,4_7 + x3,4_8 + x3,4_15 + x3,4_16 + x3,4_21 <= 1
 R19: x3,5_6 + x3,5_7 + x3,5_8 + x3,5_15 + x3,5_16 + x3,5_21 <= 1
 R20: x4,5_6 + x4,5_7 + x4,5_8 + x4,5_15 + x4,5_16 + x4,5_21 <= 1
 R21: p0 - p1 <= -1
 R22: - 6 x0,1_6 - p0 + p1 >= 0
 R23: 105 x0,1_6 - p0 + p1 <= 111
 R24: - 7 x0,1_7 - p0 + p1 >= 0
 R25: 105 x0,1_7 - p0 + p1 <= 112
 R26: - 8 x0,1_8 - p0 + p1 >= 0
 R27: 105 x0,1_8 - p0 + p1 <= 113
 R28: - 15 x0,1_15 - p0 + p1 >= 0
 R29: 105 x0,1_15 - p0 + p1 <= 120
 R30: - 16 x0,1_16 - p0 + p1 >= 0
 R31: 105 x0,1_16 - p0 + p1 <= 121
 R32: - 21 x0,1_21 - p0 + p1 >= 0
 R33: 105 x0,1_21 - p0 + p1 <= 126
 R34: p0 - p2 <= -1
 R35: - 6 x0,2_6 - p0 + p2 >= 0
 R36: 105 x0,2_6 - p0 + p2 <= 111
 R37: - 7 x0,2_7 - p0 + p2 >= 0
 R38: 105 x0,2_7 - p0 + p2 <= 112
 R39: - 8 x0,2_8 - p0 + p2 >= 0
 R40: 105 x0,2_8 - p0 + p2 <= 113
 R41: - 15 x0,2_15 - p0 + p2 >= 0
 R42: 105 x0,2_15 - p0 + p2 <= 120
 R43: - 16 x0,2_16 - p0 + p2 >= 0
 R44: 105 x0,2_16 - p0 + p2 <= 121
 R45: - 21 x0,2_21 - p0 + p2 >= 0
 R46: 105 x0,2_21 - p0 + p2 <= 126
 R47: p0 - p3 <= -1
 R48: - 6 x0,3_6 - p0 + p3 >= 0
 R49: 105 x0,3_6 - p0 + p3 <= 111
 R50: - 7 x0,3_7 - p0 + p3 >= 0
 R51: 105 x0,3_7 - p0 + p3 <= 112
 R52: - 8 x0,3_8 - p0 + p3 >= 0
 R53: 105 x0,3_8 - p0 + p3 <= 113
 R54: - 15 x0,3_15 - p0 + p3 >= 0
 R55: 105 x0,3_15 - p0 + p3 <= 120
 R56: - 16 x0,3_16 - p0 + p3 >= 0
 R57: 105 x0,3_16 - p0 + p3 <= 121
 R58: - 21 x0,3_21 - p0 + p3 >= 0
 R59: 105 x0,3_21 - p0 + p3 <= 126
 R60: p0 - p4 <= -1
 R61: - 6 x0,4_6 - p0 + p4 >= 0
 R62: 105 x0,4_6 - p0 + p4 <= 111
 R63: - 7 x0,4_7 - p0 + p4 >= 0
 R64: 105 x0,4_7 - p0 + p4 <= 112
 R65: - 8 x0,4_8 - p0 + p4 >= 0
 R66: 105 x0,4_8 - p0 + p4 <= 113
 R67: - 15 x0,4_15 - p0 + p4 >= 0
 R68: 105 x0,4_15 - p0 + p4 <= 120
 R69: - 16 x0,4_16 - p0 + p4 >= 0
 R70: 105 x0,4_16 - p0 + p4 <= 121
 R71: - 21 x0,4_21 - p0 + p4 >= 0
 R72: 105 x0,4_21 - p0 + p4 <= 126
 R73: p0 - p5 <= -1
 R74: - 6 x0,5_6 - p0 + p5 >= 0
 R75: 105 x0,5_6 - p0 + p5 <= 111
 R76: - 7 x0,5_7 - p0 + p5 >= 0
 R77: 105 x0,5_7 - p0 + p5 <= 112
 R78: - 8 x0,5_8 - p0 + p5 >= 0
 R79: 105 x0,5_8 - p0 + p5 <= 113
 R80: - 15 x0,5_15 - p0 + p5 >= 0
 R81: 105 x0,5_15 - p0 + p5 <= 120
 R82: - 16 x0,5_16 - p0 + p5 >= 0
 R83: 105 x0,5_16 - p0 + p5 <= 121
 R84: - 21 x0,5_21 - p0 + p5 >= 0
 R85: 105 x0,5_21 - p0 + p5 <= 126
 R86: p1 - p2 <= -1
 R87: - 6 x1,2_6 - p1 + p2 >= 0
 R88: 105 x1,2_6 - p1 + p2 <= 111
 R89: - 7 x1,2_7 - p1 + p2 >= 0
 R90: 105 x1,2_7 - p1 + p2 <= 112
 R91: - 8 x1,2_8 - p1 + p2 >= 0
 R92: 105 x1,2_8 - p1 + p2 <= 113
 R93: - 15 x1,2_15 - p1 + p2 >= 0
 R94: 105 x1,2_15 - p1 + p2 <= 120
 R95: - 16 x1,2_16 - p1 + p2 >= 0
 R96: 105 x1,2_16 - p1 + p2 <= 121
 R97: - 21 x1,2_21 - p1 + p2 >= 0
 R98: 105 x1,2_21 - p1 + p2 <= 126
 R99: p1 - p3 <= -1
 R100: - 6 x1,3_6 - p1 + p3 >= 0
 R101: 105 x1,3_6 - p1 + p3 <= 111
 R102: - 7 x1,3_7 - p1 + p3 >= 0
 R103: 105 x1,3_7 - p1 + p3 <= 112
 R104: - 8 x1,3_8 - p1 + p3 >= 0
 R105: 105 x1,3_8 - p1 + p3 <= 113
 R106: - 15 x1,3_15 - p1 + p3 >= 0
 R107: 105 x1,3_15 - p1 + p3 <= 120
 R108: - 16 x1,3_16 - p1 + p3 >= 0
 R109: 105 x1,3_16 - p1 + p3 <= 121
 R110: - 21 x1,3_21 - p1 + p3 >= 0
 R111: 105 x1,3_21 - p1 + p3 <= 126
 R112: p1 - p4 <= -1
 R113: - 6 x1,4_6 - p1 + p4 >= 0
 R114: 105 x1,4_6 - p1 + p4 <= 111
 R115: - 7 x1,4_7 - p1 + p4 >= 0
 R116: 105 x1,4_7 - p1 + p4 <= 112
 R117: - 8 x1,4_8 - p1 + p4 >= 0
 R118: 105 x1,4_8 - p1 + p4 <= 113
 R119: - 15 x1,4_15 - p1 + p4 >= 0
 R120: 105 x1,4_15 - p1 + p4 <= 120
 R121: - 16 x1,4_16 - p1 + p4 >= 0
 R122: 105 x1,4_16 - p1 + p4 <= 121
 R123: - 21 x1,4_21 - p1 + p4 >= 0
 R124: 105 x1,4_21 - p1 + p4 <= 126
 R125: p1 - p5 <= -1
 R126: - 6 x1,5_6 - p1 + p5 >= 0
 R127: 105 x1,5_6 - p1 + p5 <= 111
 R128: - 7 x1,5_7 - p1 + p5 >= 0
 R129: 105 x1,5_7 - p1 + p5 <= 112
 R130: - 8 x1,5_8 - p1 + p5 >= 0
 R131: 105 x1,5_8 - p1 + p5 <= 113
 R132: - 15 x1,5_15 - p1 + p5 >= 0
 R133: 105 x1,5_15 - p1 + p5 <= 120
 R134: - 16 x1,5_16 - p1 + p5 >= 0
 R135: 105 x1,5_16 - p1 + p5 <= 121
 R136: - 21 x1,5_21 - p1 + p5 >= 0
 R137: 105 x1,5_21 - p1 + p5 <= 126
 R138: p2 - p3 <= -1
 R139: - 6 x2,3_6 - p2 + p3 >= 0
 R140: 105 x2,3_6 - p2 + p3 <= 111
 R141: - 7 x2,3_7 - p2 + p3 >= 0
 R142: 105 x2,3_7 - p2 + p3 <= 112
 R143: - 8 x2,3_8 - p2 + p3 >= 0
 R144: 105 x2,3_8 - p2 + p3 <= 113
 R145: - 15 x2,3_15 - p2 + p3 >= 0
 R146: 105 x2,3_15 - p2 + p3 <= 120
 R147: - 16 x2,3_16 - p2 + p3 >= 0
 R148: 105 x2,3_16 - p2 + p3 <= 121
 R149: - 21 x2,3_21 - p2 + p3 >= 0
 R150: 105 x2,3_21 - p2 + p3 <= 126
 R151: p2 - p4 <= -1
 R152: - 6 x2,4_6 - p2 + p4 >= 0
 R153: 105 x2,4_6 - p2 + p4 <= 111
 R154: - 7 x2,4_7 - p2 + p4 >= 0
 R155: 105 x2,4_7 - p2 + p4 <= 112
 R156: - 8 x2,4_8 - p2 + p4 >= 0
 R157: 105 x2,4_8 - p2 + p4 <= 113
 R158: - 15 x2,4_15 - p2 + p4 >= 0
 R159: 105 x2,4_15 - p2 + p4 <= 120
 R160: - 16 x2,4_16 - p2 + p4 >= 0
 R161: 105 x2,4_16 - p2 + p4 <= 121
 R162: - 21 x2,4_21 - p2 + p4 >= 0
 R163: 105 x2,4_21 - p2 + p4 <= 126
 R164: p2 - p5 <= -1
 R165: - 6 x2,5_6 - p2 + p5 >= 0
 R166: 105 x2,5_6 - p2 + p5 <= 111
 R167: - 7 x2,5_7 - p2 + p5 >= 0
 R168: 105 x2,5_7 - p2 + p5 <= 112
 R169: - 8 x2,5_8 - p2 + p5 >= 0
 R170: 105 x2,5_8 - p2 + p5 <= 113
 R171: - 15 x2,5_15 - p2 + p5 >= 0
 R172: 105 x2,5_15 - p2 + p5 <= 120
 R173: - 16 x2,5_16 - p2 + p5 >= 0
 R174: 105 x2,5_16 - p2 + p5 <= 121
 R175: - 21 x2,5_21 - p2 + p5 >= 0
 R176: 105 x2,5_21 - p2 + p5 <= 126
 R177: p3 - p4 <= -1
 R178: - 6 x3,4_6 - p3 + p4 >= 0
 R179: 105 x3,4_6 - p3 + p4 <= 111
 R180: - 7 x3,4_7 - p3 + p4 >= 0
 R181: 105 x3,4_7 - p3 + p4 <= 112
 R182: - 8 x3,4_8 - p3 + p4 >= 0
 R183: 105 x3,4_8 - p3 + p4 <= 113
 R184: - 15 x3,4_15 - p3 + p4 >= 0
 R185: 105 x3,4_15 - p3 + p4 <= 120
 R186: - 16 x3,4_16 - p3 + p4 >= 0
 R187: 105 x3,4_16 - p3 + p4 <= 121
 R188: - 21 x3,4_21 - p3 + p4 >= 0
 R189: 105 x3,4_21 - p3 + p4 <= 126
 R190: p3 - p5 <= -1
 R191: - 6 x3,5_6 - p3 + p5 >= 0
 R192: 105 x3,5_6 - p3 + p5 <= 111
 R193: - 7 x3,5_7 - p3 + p5 >= 0
 R194: 105 x3,5_7 - p3 + p5 <= 112
 R195: - 8 x3,5_8 - p3 + p5 >= 0
 R196: 105 x3,5_8 - p3 + p5 <= 113
 R197: - 15 x3,5_15 - p3 + p5 >= 0
 R198: 105 x3,5_15 - p3 + p5 <= 120
 R199: - 16 x3,5_16 - p3 + p5 >= 0
 R200: 105 x3,5_16 - p3 + p5 <= 121
 R201: - 21 x3,5_21 - p3 + p5 >= 0
 R202: 105 x3,5_21 - p3 + p5 <= 126
 R203: p4 - p5 <= -1
 R204: - 6 x4,5_6 - p4 + p5 >= 0
 R205: 105 x4,5_6 - p4 + p5 <= 111
 R206: - 7 x4,5_7 - p4 + p5 >= 0
 R207: 105 x4,5_7 - p4 + p5 <= 112
 R208: - 8 x4,5_8 - p4 + p5 >= 0
 R209: 105 x4,5_8 - p4 + p5 <= 113
 R210: - 15 x4,5_15 - p4 + p5 >= 0
 R211: 105 x4,5_15 - p4 + p5 <= 120
 R212: - 16 x4,5_16 - p4 + p5 >= 0
 R213: 105 x4,5_16 - p4 + p5 <= 121
 R214: - 21 x4,5_21 - p4 + p5 >= 0
 R215: 105 x4,5_21 - p4 + p5 <= 126
Bounds
Binaries
 x0,1_6 x0,1_7 x0,1_8 x0,1_15 x0,1_16 x0,1_21 x0,2_6 x0,2_7 x0,2_8 x0,2_15
 x0,2_16 x0,2_21 x0,3_6 x0,3_7 x0,3_8 x0,3_15 x0,3_16 x0,3_21 x0,4_6 x0,4_7
 x0,4_8 x0,4_15 x0,4_16 x0,4_21 x0,5_6 x0,5_7 x0,5_8 x0,5_15 x0,5_16
 x0,5_21 x1,2_6 x1,2_7 x1,2_8 x1,2_15 x1,2_16 x1,2_21 x1,3_6 x1,3_7 x1,3_8
 x1,3_15 x1,3_16 x1,3_21 x1,4_6 x1,4_7 x1,4_8 x1,4_15 x1,4_16 x1,4_21
 x1,5_6 x1,5_7 x1,5_8 x1,5_15 x1,5_16 x1,5_21 x2,3_6 x2,3_7 x2,3_8 x2,3_15
 x2,3_16 x2,3_21 x2,4_6 x2,4_7 x2,4_8 x2,4_15 x2,4_16 x2,4_21 x2,5_6 x2,5_7
 x2,5_8 x2,5_15 x2,5_16 x2,5_21 x3,4_6 x3,4_7 x3,4_8 x3,4_15 x3,4_16
 x3,4_21 x3,5_6 x3,5_7 x3,5_8 x3,5_15 x3,5_16 x3,5_21 x4,5_6 x4,5_7 x4,5_8
 x4,5_15 x4,5_16 x4,5_21
Generals
 p0 p1 p2 p3 p4 p5
End
