logs/miss/max/miss-06-15-0.log

Gurobi 8.1.1 (win64) logging started 11/23/19 13:24:28

Changed value of parameter LogFile to logs/miss/max/miss-06-15-0.log
   Prev: gurobi.log  Default: 
Changed value of parameter LogToConsole to 0
   Prev: 1  Min: 0  Max: 1  Default: 1
Changed value of parameter TimeLimit to 3600.0
   Prev: 1e+100  Min: 0.0  Max: 1e+100  Default: 1e+100
Optimize a model with 398 rows, 176 columns and 1400 nonzeros
Variable types: 0 continuous, 176 integer (168 binary)
Coefficient statistics:
  Matrix range     [1e+00, 1e+02]
  Objective range  [1e+00, 1e+00]
  Bounds range     [1e+00, 1e+00]
  RHS range        [1e+00, 1e+02]
Found heuristic solution: objective 2.0000000
Presolve time: 0.01s
Presolved: 398 rows, 176 columns, 1400 nonzeros
Variable types: 0 continuous, 176 integer (168 binary)

Root relaxation: objective 9.000000e+00, 61 iterations, 0.00 seconds

    Nodes    |    Current Node    |     Objective Bounds      |     Work
 Expl Unexpl |  Obj  Depth IntInf | Incumbent    BestBd   Gap | It/Node Time

H    0     0                       9.0000000  168.00000  1767%     -    0s
     0     0          -    0         9.00000    9.00000  0.00%     -    0s

Explored 0 nodes (172 simplex iterations) in 0.01 seconds
Thread count was 4 (of 4 available processors)

Solution count 2: 9 2 

Optimal solution found (tolerance 1.00e-04)
Best objective 9.000000000000e+00, best bound 9.000000000000e+00, gap 0.0000%

Gurobi 8.1.1 (win64) logging started 11/23/19 13:24:28

Changed value of parameter LogFile to logs/miss/max/miss-06-15-0.log
   Prev: gurobi.log  Default: 
Changed value of parameter LogToConsole to 0
   Prev: 1  Min: 0  Max: 1  Default: 1
Changed value of parameter TimeLimit to 3600.0
   Prev: 1e+100  Min: 0.0  Max: 1e+100  Default: 1e+100
Optimize a model with 300 rows, 133 columns and 1050 nonzeros
Variable types: 0 continuous, 133 integer (126 binary)
Coefficient statistics:
  Matrix range     [1e+00, 1e+02]
  Objective range  [1e+00, 1e+00]
  Bounds range     [1e+00, 1e+00]
  RHS range        [1e+00, 1e+02]
Found heuristic solution: objective 1.0000000
Presolve time: 0.00s
Presolved: 300 rows, 133 columns, 1050 nonzeros
Variable types: 0 continuous, 133 integer (126 binary)

Root relaxation: objective 9.000000e+00, 51 iterations, 0.00 seconds

    Nodes    |    Current Node    |     Objective Bounds      |     Work
 Expl Unexpl |  Obj  Depth IntInf | Incumbent    BestBd   Gap | It/Node Time

H    0     0                       9.0000000  126.00000  1300%     -    0s
     0     0          -    0         9.00000    9.00000  0.00%     -    0s

Explored 0 nodes (113 simplex iterations) in 0.01 seconds
Thread count was 4 (of 4 available processors)

Solution count 2: 9 1 

Optimal solution found (tolerance 1.00e-04)
Best objective 9.000000000000e+00, best bound 9.000000000000e+00, gap 0.0000%

Gurobi 8.1.1 (win64) logging started 11/23/19 13:24:28

Changed value of parameter LogFile to logs/miss/max/miss-06-15-0.log
   Prev: gurobi.log  Default: 
Changed value of parameter LogToConsole to 0
   Prev: 1  Min: 0  Max: 1  Default: 1
Changed value of parameter TimeLimit to 3600.0
   Prev: 1e+100  Min: 0.0  Max: 1e+100  Default: 1e+100
Optimize a model with 216 rows, 96 columns and 750 nonzeros
Variable types: 0 continuous, 96 integer (90 binary)
Coefficient statistics:
  Matrix range     [1e+00, 1e+02]
  Objective range  [1e+00, 1e+00]
  Bounds range     [1e+00, 1e+00]
  RHS range        [1e+00, 1e+02]
Found heuristic solution: objective -0.0000000
Presolve time: 0.00s
Presolved: 216 rows, 96 columns, 750 nonzeros
Variable types: 0 continuous, 96 integer (90 binary)

Root relaxation: objective 9.000000e+00, 49 iterations, 0.00 seconds

    Nodes    |    Current Node    |     Objective Bounds      |     Work
 Expl Unexpl |  Obj  Depth IntInf | Incumbent    BestBd   Gap | It/Node Time

     0     0    9.00000    0    5   -0.00000    9.00000      -     -    0s
H    0     0                       6.0000000    9.00000  50.0%     -    0s
     0     0    9.00000    0   18    6.00000    9.00000  50.0%     -    0s
     0     0    9.00000    0    4    6.00000    9.00000  50.0%     -    0s
     0     0    9.00000    0    4    6.00000    9.00000  50.0%     -    0s
     0     0    9.00000    0    6    6.00000    9.00000  50.0%     -    0s
     0     0    9.00000    0    6    6.00000    9.00000  50.0%     -    0s
     0     0    9.00000    0    6    6.00000    9.00000  50.0%     -    0s
H    0     0                       7.0000000    9.00000  28.6%     -    0s
     0     2    9.00000    0    6    7.00000    9.00000  28.6%     -    0s
H  517   101                       8.0000000    9.00000  12.5%   5.7    0s
H  565   122                       9.0000000    9.00000  0.00%   5.7    0s

Cutting planes:
  Gomory: 4
  StrongCG: 1
  Flow cover: 4
  Zero half: 1

Explored 565 nodes (3935 simplex iterations) in 0.19 seconds
Thread count was 4 (of 4 available processors)

Solution count 5: 9 8 7 ... -0

Optimal solution found (tolerance 1.00e-04)
Best objective 9.000000000000e+00, best bound 9.000000000000e+00, gap 0.0000%
